Minimize
	r
Subject to
DemandVolume11: x111 + x121 + x131 + x141 = 2
DemandVolume12: x112 + x122 + x132 + x142 = 3
DemandVolume13: x113 + x123 + x133 + x143 = 4
DemandVolume14: x114 + x124 + x134 + x144 = 5
DemandVolume15: x115 + x125 + x135 + x145 = 6
DemandVolume16: x116 + x126 + x136 + x146 = 7
DemandVolume17: x117 + x127 + x137 + x147 = 8
DemandVolume21: x211 + x221 + x231 + x241 = 3
DemandVolume22: x212 + x222 + x232 + x242 = 4
DemandVolume23: x213 + x223 + x233 + x243 = 5
DemandVolume24: x214 + x224 + x234 + x244 = 6
DemandVolume25: x215 + x225 + x235 + x245 = 7
DemandVolume26: x216 + x226 + x236 + x246 = 8
DemandVolume27: x217 + x227 + x237 + x247 = 9
DemandVolume31: x311 + x321 + x331 + x341 = 4
DemandVolume32: x312 + x322 + x332 + x342 = 5
DemandVolume33: x313 + x323 + x333 + x343 = 6
DemandVolume34: x314 + x324 + x334 + x344 = 7
DemandVolume35: x315 + x325 + x335 + x345 = 8
DemandVolume36: x316 + x326 + x336 + x346 = 9
DemandVolume37: x317 + x327 + x337 + x347 = 10
DemandVolume41: x411 + x421 + x431 + x441 = 5
DemandVolume42: x412 + x422 + x432 + x442 = 6
DemandVolume43: x413 + x423 + x433 + x443 = 7
DemandVolume44: x414 + x424 + x434 + x444 = 8
DemandVolume45: x415 + x425 + x435 + x445 = 9
DemandVolume46: x416 + x426 + x436 + x446 = 10
DemandVolume47: x417 + x427 + x437 + x447 = 11
DemandVolume51: x511 + x521 + x531 + x541 = 6
DemandVolume52: x512 + x522 + x532 + x542 = 7
DemandVolume53: x513 + x523 + x533 + x543 = 8
DemandVolume54: x514 + x524 + x534 + x544 = 9
DemandVolume55: x515 + x525 + x535 + x545 = 10
DemandVolume56: x516 + x526 + x536 + x546 = 11
DemandVolume57: x517 + x527 + x537 + x547 = 12
DemandVolume61: x611 + x621 + x631 + x641 = 7
DemandVolume62: x612 + x622 + x632 + x642 = 8
DemandVolume63: x613 + x623 + x633 + x643 = 9
DemandVolume64: x614 + x624 + x634 + x644 = 10
DemandVolume65: x615 + x625 + x635 + x645 = 11
DemandVolume66: x616 + x626 + x636 + x646 = 12
DemandVolume67: x617 + x627 + x637 + x647 = 13
DemandVolume71: x711 + x721 + x731 + x741 = 8
DemandVolume72: x712 + x722 + x732 + x742 = 9
DemandVolume73: x713 + x723 + x733 + x743 = 10
DemandVolume74: x714 + x724 + x734 + x744 = 11
DemandVolume75: x715 + x725 + x735 + x745 = 12
DemandVolume76: x716 + x726 + x736 + x746 = 13
DemandVolume77: x717 + x727 + x737 + x747 = 14
DemandFlow111: 3 x111 - 2 u111 = 0
DemandFlow121: 3 x121 - 2 u121 = 0
DemandFlow131: 3 x131 - 2 u131 = 0
DemandFlow141: 3 x141 - 2 u141 = 0
DemandFlow112: 3 x112 - 3 u112 = 0
DemandFlow122: 3 x122 - 3 u122 = 0
DemandFlow132: 3 x132 - 3 u132 = 0
DemandFlow142: 3 x142 - 3 u142 = 0
DemandFlow113: 3 x113 - 4 u113 = 0
DemandFlow123: 3 x123 - 4 u123 = 0
DemandFlow133: 3 x133 - 4 u133 = 0
DemandFlow143: 3 x143 - 4 u143 = 0
DemandFlow114: 3 x114 - 5 u114 = 0
DemandFlow124: 3 x124 - 5 u124 = 0
DemandFlow134: 3 x134 - 5 u134 = 0
DemandFlow144: 3 x144 - 5 u144 = 0
DemandFlow115: 3 x115 - 6 u115 = 0
DemandFlow125: 3 x125 - 6 u125 = 0
DemandFlow135: 3 x135 - 6 u135 = 0
DemandFlow145: 3 x145 - 6 u145 = 0
DemandFlow116: 3 x116 - 7 u116 = 0
DemandFlow126: 3 x126 - 7 u126 = 0
DemandFlow136: 3 x136 - 7 u136 = 0
DemandFlow146: 3 x146 - 7 u146 = 0
DemandFlow117: 3 x117 - 8 u117 = 0
DemandFlow127: 3 x127 - 8 u127 = 0
DemandFlow137: 3 x137 - 8 u137 = 0
DemandFlow147: 3 x147 - 8 u147 = 0
DemandFlow211: 3 x211 - 3 u211 = 0
DemandFlow221: 3 x221 - 3 u221 = 0
DemandFlow231: 3 x231 - 3 u231 = 0
DemandFlow241: 3 x241 - 3 u241 = 0
DemandFlow212: 3 x212 - 4 u212 = 0
DemandFlow222: 3 x222 - 4 u222 = 0
DemandFlow232: 3 x232 - 4 u232 = 0
DemandFlow242: 3 x242 - 4 u242 = 0
DemandFlow213: 3 x213 - 5 u213 = 0
DemandFlow223: 3 x223 - 5 u223 = 0
DemandFlow233: 3 x233 - 5 u233 = 0
DemandFlow243: 3 x243 - 5 u243 = 0
DemandFlow214: 3 x214 - 6 u214 = 0
DemandFlow224: 3 x224 - 6 u224 = 0
DemandFlow234: 3 x234 - 6 u234 = 0
DemandFlow244: 3 x244 - 6 u244 = 0
DemandFlow215: 3 x215 - 7 u215 = 0
DemandFlow225: 3 x225 - 7 u225 = 0
DemandFlow235: 3 x235 - 7 u235 = 0
DemandFlow245: 3 x245 - 7 u245 = 0
DemandFlow216: 3 x216 - 8 u216 = 0
DemandFlow226: 3 x226 - 8 u226 = 0
DemandFlow236: 3 x236 - 8 u236 = 0
DemandFlow246: 3 x246 - 8 u246 = 0
DemandFlow217: 3 x217 - 9 u217 = 0
DemandFlow227: 3 x227 - 9 u227 = 0
DemandFlow237: 3 x237 - 9 u237 = 0
DemandFlow247: 3 x247 - 9 u247 = 0
DemandFlow311: 3 x311 - 4 u311 = 0
DemandFlow321: 3 x321 - 4 u321 = 0
DemandFlow331: 3 x331 - 4 u331 = 0
DemandFlow341: 3 x341 - 4 u341 = 0
DemandFlow312: 3 x312 - 5 u312 = 0
DemandFlow322: 3 x322 - 5 u322 = 0
DemandFlow332: 3 x332 - 5 u332 = 0
DemandFlow342: 3 x342 - 5 u342 = 0
DemandFlow313: 3 x313 - 6 u313 = 0
DemandFlow323: 3 x323 - 6 u323 = 0
DemandFlow333: 3 x333 - 6 u333 = 0
DemandFlow343: 3 x343 - 6 u343 = 0
DemandFlow314: 3 x314 - 7 u314 = 0
DemandFlow324: 3 x324 - 7 u324 = 0
DemandFlow334: 3 x334 - 7 u334 = 0
DemandFlow344: 3 x344 - 7 u344 = 0
DemandFlow315: 3 x315 - 8 u315 = 0
DemandFlow325: 3 x325 - 8 u325 = 0
DemandFlow335: 3 x335 - 8 u335 = 0
DemandFlow345: 3 x345 - 8 u345 = 0
DemandFlow316: 3 x316 - 9 u316 = 0
DemandFlow326: 3 x326 - 9 u326 = 0
DemandFlow336: 3 x336 - 9 u336 = 0
DemandFlow346: 3 x346 - 9 u346 = 0
DemandFlow317: 3 x317 - 10 u317 = 0
DemandFlow327: 3 x327 - 10 u327 = 0
DemandFlow337: 3 x337 - 10 u337 = 0
DemandFlow347: 3 x347 - 10 u347 = 0
DemandFlow411: 3 x411 - 5 u411 = 0
DemandFlow421: 3 x421 - 5 u421 = 0
DemandFlow431: 3 x431 - 5 u431 = 0
DemandFlow441: 3 x441 - 5 u441 = 0
DemandFlow412: 3 x412 - 6 u412 = 0
DemandFlow422: 3 x422 - 6 u422 = 0
DemandFlow432: 3 x432 - 6 u432 = 0
DemandFlow442: 3 x442 - 6 u442 = 0
DemandFlow413: 3 x413 - 7 u413 = 0
DemandFlow423: 3 x423 - 7 u423 = 0
DemandFlow433: 3 x433 - 7 u433 = 0
DemandFlow443: 3 x443 - 7 u443 = 0
DemandFlow414: 3 x414 - 8 u414 = 0
DemandFlow424: 3 x424 - 8 u424 = 0
DemandFlow434: 3 x434 - 8 u434 = 0
DemandFlow444: 3 x444 - 8 u444 = 0
DemandFlow415: 3 x415 - 9 u415 = 0
DemandFlow425: 3 x425 - 9 u425 = 0
DemandFlow435: 3 x435 - 9 u435 = 0
DemandFlow445: 3 x445 - 9 u445 = 0
DemandFlow416: 3 x416 - 10 u416 = 0
DemandFlow426: 3 x426 - 10 u426 = 0
DemandFlow436: 3 x436 - 10 u436 = 0
DemandFlow446: 3 x446 - 10 u446 = 0
DemandFlow417: 3 x417 - 11 u417 = 0
DemandFlow427: 3 x427 - 11 u427 = 0
DemandFlow437: 3 x437 - 11 u437 = 0
DemandFlow447: 3 x447 - 11 u447 = 0
DemandFlow511: 3 x511 - 6 u511 = 0
DemandFlow521: 3 x521 - 6 u521 = 0
DemandFlow531: 3 x531 - 6 u531 = 0
DemandFlow541: 3 x541 - 6 u541 = 0
DemandFlow512: 3 x512 - 7 u512 = 0
DemandFlow522: 3 x522 - 7 u522 = 0
DemandFlow532: 3 x532 - 7 u532 = 0
DemandFlow542: 3 x542 - 7 u542 = 0
DemandFlow513: 3 x513 - 8 u513 = 0
DemandFlow523: 3 x523 - 8 u523 = 0
DemandFlow533: 3 x533 - 8 u533 = 0
DemandFlow543: 3 x543 - 8 u543 = 0
DemandFlow514: 3 x514 - 9 u514 = 0
DemandFlow524: 3 x524 - 9 u524 = 0
DemandFlow534: 3 x534 - 9 u534 = 0
DemandFlow544: 3 x544 - 9 u544 = 0
DemandFlow515: 3 x515 - 10 u515 = 0
DemandFlow525: 3 x525 - 10 u525 = 0
DemandFlow535: 3 x535 - 10 u535 = 0
DemandFlow545: 3 x545 - 10 u545 = 0
DemandFlow516: 3 x516 - 11 u516 = 0
DemandFlow526: 3 x526 - 11 u526 = 0
DemandFlow536: 3 x536 - 11 u536 = 0
DemandFlow546: 3 x546 - 11 u546 = 0
DemandFlow517: 3 x517 - 12 u517 = 0
DemandFlow527: 3 x527 - 12 u527 = 0
DemandFlow537: 3 x537 - 12 u537 = 0
DemandFlow547: 3 x547 - 12 u547 = 0
DemandFlow611: 3 x611 - 7 u611 = 0
DemandFlow621: 3 x621 - 7 u621 = 0
DemandFlow631: 3 x631 - 7 u631 = 0
DemandFlow641: 3 x641 - 7 u641 = 0
DemandFlow612: 3 x612 - 8 u612 = 0
DemandFlow622: 3 x622 - 8 u622 = 0
DemandFlow632: 3 x632 - 8 u632 = 0
DemandFlow642: 3 x642 - 8 u642 = 0
DemandFlow613: 3 x613 - 9 u613 = 0
DemandFlow623: 3 x623 - 9 u623 = 0
DemandFlow633: 3 x633 - 9 u633 = 0
DemandFlow643: 3 x643 - 9 u643 = 0
DemandFlow614: 3 x614 - 10 u614 = 0
DemandFlow624: 3 x624 - 10 u624 = 0
DemandFlow634: 3 x634 - 10 u634 = 0
DemandFlow644: 3 x644 - 10 u644 = 0
DemandFlow615: 3 x615 - 11 u615 = 0
DemandFlow625: 3 x625 - 11 u625 = 0
DemandFlow635: 3 x635 - 11 u635 = 0
DemandFlow645: 3 x645 - 11 u645 = 0
DemandFlow616: 3 x616 - 12 u616 = 0
DemandFlow626: 3 x626 - 12 u626 = 0
DemandFlow636: 3 x636 - 12 u636 = 0
DemandFlow646: 3 x646 - 12 u646 = 0
DemandFlow617: 3 x617 - 13 u617 = 0
DemandFlow627: 3 x627 - 13 u627 = 0
DemandFlow637: 3 x637 - 13 u637 = 0
DemandFlow647: 3 x647 - 13 u647 = 0
DemandFlow711: 3 x711 - 8 u711 = 0
DemandFlow721: 3 x721 - 8 u721 = 0
DemandFlow731: 3 x731 - 8 u731 = 0
DemandFlow741: 3 x741 - 8 u741 = 0
DemandFlow712: 3 x712 - 9 u712 = 0
DemandFlow722: 3 x722 - 9 u722 = 0
DemandFlow732: 3 x732 - 9 u732 = 0
DemandFlow742: 3 x742 - 9 u742 = 0
DemandFlow713: 3 x713 - 10 u713 = 0
DemandFlow723: 3 x723 - 10 u723 = 0
DemandFlow733: 3 x733 - 10 u733 = 0
DemandFlow743: 3 x743 - 10 u743 = 0
DemandFlow714: 3 x714 - 11 u714 = 0
DemandFlow724: 3 x724 - 11 u724 = 0
DemandFlow734: 3 x734 - 11 u734 = 0
DemandFlow744: 3 x744 - 11 u744 = 0
DemandFlow715: 3 x715 - 12 u715 = 0
DemandFlow725: 3 x725 - 12 u725 = 0
DemandFlow735: 3 x735 - 12 u735 = 0
DemandFlow745: 3 x745 - 12 u745 = 0
DemandFlow716: 3 x716 - 13 u716 = 0
DemandFlow726: 3 x726 - 13 u726 = 0
DemandFlow736: 3 x736 - 13 u736 = 0
DemandFlow746: 3 x746 - 13 u746 = 0
DemandFlow717: 3 x717 - 14 u717 = 0
DemandFlow727: 3 x727 - 14 u727 = 0
DemandFlow737: 3 x737 - 14 u737 = 0
DemandFlow747: 3 x747 - 14 u747 = 0
SrcConstraints11: x111 + x112 + x113 + x114 + x115 + x116 + x117 - c11 = 0
SrcConstraints12: x121 + x122 + x123 + x124 + x125 + x126 + x127 - c12 = 0
SrcConstraints13: x131 + x132 + x133 + x134 + x135 + x136 + x137 - c13 = 0
SrcConstraints14: x141 + x142 + x143 + x144 + x145 + x146 + x147 - c14 = 0
SrcConstraints21: x211 + x212 + x213 + x214 + x215 + x216 + x217 - c21 = 0
SrcConstraints22: x221 + x222 + x223 + x224 + x225 + x226 + x227 - c22 = 0
SrcConstraints23: x231 + x232 + x233 + x234 + x235 + x236 + x237 - c23 = 0
SrcConstraints24: x241 + x242 + x243 + x244 + x245 + x246 + x247 - c24 = 0
SrcConstraints31: x311 + x312 + x313 + x314 + x315 + x316 + x317 - c31 = 0
SrcConstraints32: x321 + x322 + x323 + x324 + x325 + x326 + x327 - c32 = 0
SrcConstraints33: x331 + x332 + x333 + x334 + x335 + x336 + x337 - c33 = 0
SrcConstraints34: x341 + x342 + x343 + x344 + x345 + x346 + x347 - c34 = 0
SrcConstraints41: x411 + x412 + x413 + x414 + x415 + x416 + x417 - c41 = 0
SrcConstraints42: x421 + x422 + x423 + x424 + x425 + x426 + x427 - c42 = 0
SrcConstraints43: x431 + x432 + x433 + x434 + x435 + x436 + x437 - c43 = 0
SrcConstraints44: x441 + x442 + x443 + x444 + x445 + x446 + x447 - c44 = 0
SrcConstraints51: x511 + x512 + x513 + x514 + x515 + x516 + x517 - c51 = 0
SrcConstraints52: x521 + x522 + x523 + x524 + x525 + x526 + x527 - c52 = 0
SrcConstraints53: x531 + x532 + x533 + x534 + x535 + x536 + x537 - c53 = 0
SrcConstraints54: x541 + x542 + x543 + x544 + x545 + x546 + x547 - c54 = 0
SrcConstraints61: x611 + x612 + x613 + x614 + x615 + x616 + x617 - c61 = 0
SrcConstraints62: x621 + x622 + x623 + x624 + x625 + x626 + x627 - c62 = 0
SrcConstraints63: x631 + x632 + x633 + x634 + x635 + x636 + x637 - c63 = 0
SrcConstraints64: x641 + x642 + x643 + x644 + x645 + x646 + x647 - c64 = 0
SrcConstraints71: x711 + x712 + x713 + x714 + x715 + x716 + x717 - c71 = 0
SrcConstraints72: x721 + x722 + x723 + x724 + x725 + x726 + x727 - c72 = 0
SrcConstraints73: x731 + x732 + x733 + x734 + x735 + x736 + x737 - c73 = 0
SrcConstraints74: x741 + x742 + x743 + x744 + x745 + x746 + x747 - c74 = 0
DstConstraint11: x111 + x211 + x311 + x411 + x511 + x611 + x711 - d11 = 0
DstConstraint12: x112 + x212 + x312 + x412 + x512 + x612 + x712 - d12 = 0
DstConstraint13: x113 + x213 + x313 + x413 + x513 + x613 + x713 - d13 = 0
DstConstraint14: x114 + x214 + x314 + x414 + x514 + x614 + x714 - d14 = 0
DstConstraint15: x115 + x215 + x315 + x415 + x515 + x615 + x715 - d15 = 0
DstConstraint16: x116 + x216 + x316 + x416 + x516 + x616 + x716 - d16 = 0
DstConstraint17: x117 + x217 + x317 + x417 + x517 + x617 + x717 - d17 = 0
DstConstraint21: x121 + x221 + x321 + x421 + x521 + x621 + x721 - d21 = 0
DstConstraint22: x122 + x222 + x322 + x422 + x522 + x622 + x722 - d22 = 0
DstConstraint23: x123 + x223 + x323 + x423 + x523 + x623 + x723 - d23 = 0
DstConstraint24: x124 + x224 + x324 + x424 + x524 + x624 + x724 - d24 = 0
DstConstraint25: x125 + x225 + x325 + x425 + x525 + x625 + x725 - d25 = 0
DstConstraint26: x126 + x226 + x326 + x426 + x526 + x626 + x726 - d26 = 0
DstConstraint27: x127 + x227 + x327 + x427 + x527 + x627 + x727 - d27 = 0
DstConstraint31: x131 + x231 + x331 + x431 + x531 + x631 + x731 - d31 = 0
DstConstraint32: x132 + x232 + x332 + x432 + x532 + x632 + x732 - d32 = 0
DstConstraint33: x133 + x233 + x333 + x433 + x533 + x633 + x733 - d33 = 0
DstConstraint34: x134 + x234 + x334 + x434 + x534 + x634 + x734 - d34 = 0
DstConstraint35: x135 + x235 + x335 + x435 + x535 + x635 + x735 - d35 = 0
DstConstraint36: x136 + x236 + x336 + x436 + x536 + x636 + x736 - d36 = 0
DstConstraint37: x137 + x237 + x337 + x437 + x537 + x637 + x737 - d37 = 0
DstConstraint41: x141 + x241 + x341 + x441 + x541 + x641 + x741 - d41 = 0
DstConstraint42: x142 + x242 + x342 + x442 + x542 + x642 + x742 - d42 = 0
DstConstraint43: x143 + x243 + x343 + x443 + x543 + x643 + x743 - d43 = 0
DstConstraint44: x144 + x244 + x344 + x444 + x544 + x644 + x744 - d44 = 0
DstConstraint45: x145 + x245 + x345 + x445 + x545 + x645 + x745 - d45 = 0
DstConstraint46: x146 + x246 + x346 + x446 + x546 + x646 + x746 - d46 = 0
DstConstraint47: x147 + x247 + x347 + x447 + x547 + x647 + x747 - d47 = 0
TransConstraint1: x111 + x112 + x113 + x114 + x115 + x116 + x117 + x211 + x212 + x213 + x214 + x215 + x216 + x217 + x311 + x312 + x313 + x314 + x315 + x316 + x317 + x411 + x412 + x413 + x414 + x415 + x416 + x417 + x511 + x512 + x513 + x514 + x515 + x516 + x517 + x611 + x612 + x613 + x614 + x615 + x616 + x617 + x711 + x712 + x713 + x714 + x715 + x716 + x717 - r <= 0
TransConstraint2: x121 + x122 + x123 + x124 + x125 + x126 + x127 + x221 + x222 + x223 + x224 + x225 + x226 + x227 + x321 + x322 + x323 + x324 + x325 + x326 + x327 + x421 + x422 + x423 + x424 + x425 + x426 + x427 + x521 + x522 + x523 + x524 + x525 + x526 + x527 + x621 + x622 + x623 + x624 + x625 + x626 + x627 + x721 + x722 + x723 + x724 + x725 + x726 + x727 - r <= 0
TransConstraint3: x131 + x132 + x133 + x134 + x135 + x136 + x137 + x231 + x232 + x233 + x234 + x235 + x236 + x237 + x331 + x332 + x333 + x334 + x335 + x336 + x337 + x431 + x432 + x433 + x434 + x435 + x436 + x437 + x531 + x532 + x533 + x534 + x535 + x536 + x537 + x631 + x632 + x633 + x634 + x635 + x636 + x637 + x731 + x732 + x733 + x734 + x735 + x736 + x737 - r <= 0
TransConstraint4: x141 + x142 + x143 + x144 + x145 + x146 + x147 + x241 + x242 + x243 + x244 + x245 + x246 + x247 + x341 + x342 + x343 + x344 + x345 + x346 + x347 + x441 + x442 + x443 + x444 + x445 + x446 + x447 + x541 + x542 + x543 + x544 + x545 + x546 + x547 + x641 + x642 + x643 + x644 + x645 + x646 + x647 + x741 + x742 + x743 + x744 + x745 + x746 + x747 - r <= 0
Utilisation11: u111 + u121 + u131 + u141 = 3
Utilisation12: u112 + u122 + u132 + u142 = 3
Utilisation13: u113 + u123 + u133 + u143 = 3
Utilisation14: u114 + u124 + u134 + u144 = 3
Utilisation15: u115 + u125 + u135 + u145 = 3
Utilisation16: u116 + u126 + u136 + u146 = 3
Utilisation17: u117 + u127 + u137 + u147 = 3
Utilisation21: u211 + u221 + u231 + u241 = 3
Utilisation22: u212 + u222 + u232 + u242 = 3
Utilisation23: u213 + u223 + u233 + u243 = 3
Utilisation24: u214 + u224 + u234 + u244 = 3
Utilisation25: u215 + u225 + u235 + u245 = 3
Utilisation26: u216 + u226 + u236 + u246 = 3
Utilisation27: u217 + u227 + u237 + u247 = 3
Utilisation31: u311 + u321 + u331 + u341 = 3
Utilisation32: u312 + u322 + u332 + u342 = 3
Utilisation33: u313 + u323 + u333 + u343 = 3
Utilisation34: u314 + u324 + u334 + u344 = 3
Utilisation35: u315 + u325 + u335 + u345 = 3
Utilisation36: u316 + u326 + u336 + u346 = 3
Utilisation37: u317 + u327 + u337 + u347 = 3
Utilisation41: u411 + u421 + u431 + u441 = 3
Utilisation42: u412 + u422 + u432 + u442 = 3
Utilisation43: u413 + u423 + u433 + u443 = 3
Utilisation44: u414 + u424 + u434 + u444 = 3
Utilisation45: u415 + u425 + u435 + u445 = 3
Utilisation46: u416 + u426 + u436 + u446 = 3
Utilisation47: u417 + u427 + u437 + u447 = 3
Utilisation51: u511 + u521 + u531 + u541 = 3
Utilisation52: u512 + u522 + u532 + u542 = 3
Utilisation53: u513 + u523 + u533 + u543 = 3
Utilisation54: u514 + u524 + u534 + u544 = 3
Utilisation55: u515 + u525 + u535 + u545 = 3
Utilisation56: u516 + u526 + u536 + u546 = 3
Utilisation57: u517 + u527 + u537 + u547 = 3
Utilisation61: u611 + u621 + u631 + u641 = 3
Utilisation62: u612 + u622 + u632 + u642 = 3
Utilisation63: u613 + u623 + u633 + u643 = 3
Utilisation64: u614 + u624 + u634 + u644 = 3
Utilisation65: u615 + u625 + u635 + u645 = 3
Utilisation66: u616 + u626 + u636 + u646 = 3
Utilisation67: u617 + u627 + u637 + u647 = 3
Utilisation71: u711 + u721 + u731 + u741 = 3
Utilisation72: u712 + u722 + u732 + u742 = 3
Utilisation73: u713 + u723 + u733 + u743 = 3
Utilisation74: u714 + u724 + u734 + u744 = 3
Utilisation75: u715 + u725 + u735 + u745 = 3
Utilisation76: u716 + u726 + u736 + u746 = 3
Utilisation77: u717 + u727 + u737 + u747 = 3

Bounds
r >= 0
x111 >= 0
x112 >= 0
x113 >= 0
x114 >= 0
x115 >= 0
x116 >= 0
x117 >= 0
x121 >= 0
x122 >= 0
x123 >= 0
x124 >= 0
x125 >= 0
x126 >= 0
x127 >= 0
x131 >= 0
x132 >= 0
x133 >= 0
x134 >= 0
x135 >= 0
x136 >= 0
x137 >= 0
x141 >= 0
x142 >= 0
x143 >= 0
x144 >= 0
x145 >= 0
x146 >= 0
x147 >= 0
x211 >= 0
x212 >= 0
x213 >= 0
x214 >= 0
x215 >= 0
x216 >= 0
x217 >= 0
x221 >= 0
x222 >= 0
x223 >= 0
x224 >= 0
x225 >= 0
x226 >= 0
x227 >= 0
x231 >= 0
x232 >= 0
x233 >= 0
x234 >= 0
x235 >= 0
x236 >= 0
x237 >= 0
x241 >= 0
x242 >= 0
x243 >= 0
x244 >= 0
x245 >= 0
x246 >= 0
x247 >= 0
x311 >= 0
x312 >= 0
x313 >= 0
x314 >= 0
x315 >= 0
x316 >= 0
x317 >= 0
x321 >= 0
x322 >= 0
x323 >= 0
x324 >= 0
x325 >= 0
x326 >= 0
x327 >= 0
x331 >= 0
x332 >= 0
x333 >= 0
x334 >= 0
x335 >= 0
x336 >= 0
x337 >= 0
x341 >= 0
x342 >= 0
x343 >= 0
x344 >= 0
x345 >= 0
x346 >= 0
x347 >= 0
x411 >= 0
x412 >= 0
x413 >= 0
x414 >= 0
x415 >= 0
x416 >= 0
x417 >= 0
x421 >= 0
x422 >= 0
x423 >= 0
x424 >= 0
x425 >= 0
x426 >= 0
x427 >= 0
x431 >= 0
x432 >= 0
x433 >= 0
x434 >= 0
x435 >= 0
x436 >= 0
x437 >= 0
x441 >= 0
x442 >= 0
x443 >= 0
x444 >= 0
x445 >= 0
x446 >= 0
x447 >= 0
x511 >= 0
x512 >= 0
x513 >= 0
x514 >= 0
x515 >= 0
x516 >= 0
x517 >= 0
x521 >= 0
x522 >= 0
x523 >= 0
x524 >= 0
x525 >= 0
x526 >= 0
x527 >= 0
x531 >= 0
x532 >= 0
x533 >= 0
x534 >= 0
x535 >= 0
x536 >= 0
x537 >= 0
x541 >= 0
x542 >= 0
x543 >= 0
x544 >= 0
x545 >= 0
x546 >= 0
x547 >= 0
x611 >= 0
x612 >= 0
x613 >= 0
x614 >= 0
x615 >= 0
x616 >= 0
x617 >= 0
x621 >= 0
x622 >= 0
x623 >= 0
x624 >= 0
x625 >= 0
x626 >= 0
x627 >= 0
x631 >= 0
x632 >= 0
x633 >= 0
x634 >= 0
x635 >= 0
x636 >= 0
x637 >= 0
x641 >= 0
x642 >= 0
x643 >= 0
x644 >= 0
x645 >= 0
x646 >= 0
x647 >= 0
x711 >= 0
x712 >= 0
x713 >= 0
x714 >= 0
x715 >= 0
x716 >= 0
x717 >= 0
x721 >= 0
x722 >= 0
x723 >= 0
x724 >= 0
x725 >= 0
x726 >= 0
x727 >= 0
x731 >= 0
x732 >= 0
x733 >= 0
x734 >= 0
x735 >= 0
x736 >= 0
x737 >= 0
x741 >= 0
x742 >= 0
x743 >= 0
x744 >= 0
x745 >= 0
x746 >= 0
x747 >= 0
c11 >= 0
c12 >= 0
c13 >= 0
c14 >= 0
c21 >= 0
c22 >= 0
c23 >= 0
c24 >= 0
c31 >= 0
c32 >= 0
c33 >= 0
c34 >= 0
c41 >= 0
c42 >= 0
c43 >= 0
c44 >= 0
c51 >= 0
c52 >= 0
c53 >= 0
c54 >= 0
c61 >= 0
c62 >= 0
c63 >= 0
c64 >= 0
c71 >= 0
c72 >= 0
c73 >= 0
c74 >= 0
d11 >= 0
d12 >= 0
d13 >= 0
d14 >= 0
d15 >= 0
d16 >= 0
d17 >= 0
d21 >= 0
d22 >= 0
d23 >= 0
d24 >= 0
d25 >= 0
d26 >= 0
d27 >= 0
d31 >= 0
d32 >= 0
d33 >= 0
d34 >= 0
d35 >= 0
d36 >= 0
d37 >= 0
d41 >= 0
d42 >= 0
d43 >= 0
d44 >= 0
d45 >= 0
d46 >= 0
d47 >= 0

Binary
u111
u112
u113
u114
u115
u116
u117
u121
u122
u123
u124
u125
u126
u127
u131
u132
u133
u134
u135
u136
u137
u141
u142
u143
u144
u145
u146
u147
u211
u212
u213
u214
u215
u216
u217
u221
u222
u223
u224
u225
u226
u227
u231
u232
u233
u234
u235
u236
u237
u241
u242
u243
u244
u245
u246
u247
u311
u312
u313
u314
u315
u316
u317
u321
u322
u323
u324
u325
u326
u327
u331
u332
u333
u334
u335
u336
u337
u341
u342
u343
u344
u345
u346
u347
u411
u412
u413
u414
u415
u416
u417
u421
u422
u423
u424
u425
u426
u427
u431
u432
u433
u434
u435
u436
u437
u441
u442
u443
u444
u445
u446
u447
u511
u512
u513
u514
u515
u516
u517
u521
u522
u523
u524
u525
u526
u527
u531
u532
u533
u534
u535
u536
u537
u541
u542
u543
u544
u545
u546
u547
u611
u612
u613
u614
u615
u616
u617
u621
u622
u623
u624
u625
u626
u627
u631
u632
u633
u634
u635
u636
u637
u641
u642
u643
u644
u645
u646
u647
u711
u712
u713
u714
u715
u716
u717
u721
u722
u723
u724
u725
u726
u727
u731
u732
u733
u734
u735
u736
u737
u741
u742
u743
u744
u745
u746
u747

End